NAME : sim81.95312.tour
COMMENT : Length = 95312
COMMENT : Found by LKH [Keld Helsgaun] Sat Sep 15 02:02:42 2018
TYPE : TOUR
DIMENSION : 81
TOUR_SECTION
1
48
46
31
17
57
8
49
62
11
27
12
67
55
53
58
26
51
70
21
3
42
2
24
59
6
44
9
4
15
38
45
79
19
52
47
64
75
35
23
5
32
16
50
41
20
54
66
76
22
10
69
7
61
36
72
34
73
78
71
77
25
14
60
29
74
33
43
18
13
28
56
68
63
81
65
37
39
30
40
80
-1
EOF
